NAME : 10_3_3_1_(48).dat
COMMENT : Henke, Speranza, Wäscher, 2015
TYPE : MCVRP
DIMENSION : 11
EDGE_WEIGHT_TYPE : DISTANCE_MATRIX
CAPACITY : 1000
VEHICLES : 2
PRODUCT TYPES : 3
COMPARTMENTS : 3
NODE_COORD_SECTION
1 50 50
2 79.48 72.94
3 36.39 61.92
4 97.82 57.47
5 91.93 4.05
6 51.94 73.53
7 18.11 53.96
8 13.17 55.59
9 66.55 26.12
10 61.86 39.73
11 23.05 95.56
DEMAND_SECTION
1 0 0 0
2 217 0 0
3 0 0 295
4 204 0 0
5 0 42 0
6 0 28 0
7 66 0 0
8 130 0 0
9 122 0 0
10 0 138 0
11 0 235 0
DEPOT_SECTION
1
EOF